general:
 System = diamond Si
 ISTART = 0  
 ICHARG = 2
 ENCUT  = 300
 ISMEAR = 0
 SIGMA  = 0.1

 LORBIT = 10
# LORBIT = 11
