kpoints for bandstructure L-G-X-K-G
 20
line
reciprocal
  0.50000  0.50000  0.50000    1   ! L
  0.00000  0.00000  0.00000    1   ! Gamma

  0.00000  0.00000  0.00000    1   ! Gamma
  0.00000  0.50000  0.50000    1   ! X

  0.00000  0.50000  0.50000    1   ! X
  0.37500  0.7500   0.37500    1   ! K

  0.37500  0.7500   0.37500    1   ! K
  0.00000  0.00000  0.00000    1   ! Gamma
