cubic diamond                           
   5.80000000000000     
     0.0000000000000000    0.4713083609073704    0.4713083609073704
     0.4713083609073704    0.0000000000000000    0.4713083609073704
     0.4713083609073704    0.4713083609073704    0.0000000000000000
   Si
     2
Direct
  0.8750000000000000  0.8750000000000000  0.8750000000000000
  0.1250000000000000  0.1250000000000000  0.1250000000000000
