k-points along high symmetry lines.
 50
line
rec
0.5000000000 	-0.2333355143 	0.2333355143 ! H0
0.5000000000 	0.0000000000 	0.0000000000 ! L

0.5000000000 	0.0000000000 	0.0000000000 ! L
0.0000000000 	0.0000000000 	0.0000000000 ! Gamma

0.0000000000 	0.0000000000 	0.0000000000 ! Gamma
0.3666677571 	-0.3666677571 	0.0000000000 ! S0
