 Fe2O3 Rho unitcell                     
   1.00000000000000     
     5.4723945296495407    0.0061675769998791    0.0042169192233827
     3.1219615715863029    4.4944925142987504    0.0042169573548706
     3.1219615740329183    1.6349024250871786    4.1865961877245539
   Fe   O 
     4     6
Direct
  0.3540683756373702  0.3540682897359719  0.3540682788368358
  0.1459316853626312  0.1459316574640311  0.1459316533631622
  0.6459316975626289  0.6459316418640298  0.6459315568631668
  0.8540683945373663  0.8540682778359724  0.8540682828368359
  0.5561498956450804  0.9438501391847356  0.2499999732747102
  0.2500000731050668  0.5561497684950457  0.9438501408970876
  0.9438502310498514  0.2500000164202212  0.5561496988282041
  0.4438502398549218  0.0561498087152652  0.7499998911252928
  0.7500000263949327  0.4438501853049538  0.0561497809029164
  0.0561498604501470  0.7499999315797815  0.4438501655717986
